<?xml version="1.0" encoding="UTF-8"?><osil xmlns="os.optimizationservices.org" xmlns:xsi="http://www.w3.org/2001/XMLSchema-instance" xsi:schemaLocation="os.optimizationservices.org http://www.optimizationservices.org/schemas/2.0/OSiL.xsd"><instanceHeader><name>mathopt6</name></instanceHeader><instanceData><variables numberOfVariables="2"><var name="x1" lb="-3" ub="3"/><var name="x2" lb="-3" ub="3"/></variables><objectives><obj maxOrMin="min" name="defObj_objvar" numberOfObjCoef="0"/></objectives><nonlinearExpressions numberOfNonlinearExpressions="1"><nl idx="-1"><sum><exp><sin><variable idx="0" coef="50"/></sin></exp><sin><product><exp><variable idx="1"/></exp><number value="60"/></product></sin><sin><product><sin><variable idx="0"/></sin><number value="70"/></product></sin><sin><sin><variable idx="1" coef="80"/></sin></sin><negate><sin><sum><variable idx="0" coef="10"/><variable idx="1" coef="10"/></sum></sin></negate><product><sum><square><variable idx="0"/></square><square><variable idx="1"/></square></sum><number value=".25"/></product></sum></nl></nonlinearExpressions></instanceData></osil>